NAME          ClpDefau  FREE
ROWS
 N  OBJROW
 L  ZMUNI1_PCT
 L  ZMUNI2_PCT
 L  ZMUNI3_PCT
 L  ZMUNI4_PCT
 L  ZMUNI5_PCT
 L  ZMUNI6_PCT
 L  ZMUNI7_PCT
 L  ZMUNI8_PCT
 L  ZMUNI9_PCT
COLUMNS
    QMUNI1 OBJROW 1.          
    QMUNI1 ZMUNI1_PCT 30126.7624  
    QMUNI1 ZMUNI2_PCT 1811.7905   
    QMUNI1 ZMUNI3_PCT 4259.491    
    QMUNI1 ZMUNI4_PCT 3394.5084   
    QMUNI1 ZMUNI5_PCT  -127.4109  
    QMUNI1 ZMUNI6_PCT 103.1875    
    QMUNI1 ZMUNI7_PCT 1916.8853   
    QMUNI1 ZMUNI8_PCT 1364.1358   
    QMUNI1 ZMUNI9_PCT 378.4179    
    QMUNI2 OBJROW 1.          
    QMUNI2 ZMUNI1_PCT 1558.6853   
    QMUNI2 ZMUNI2_PCT 36214.4471  
    QMUNI2 ZMUNI3_PCT 2357.483    
    QMUNI2 ZMUNI4_PCT 2716.8274   
    QMUNI2 ZMUNI5_PCT 181.5796    
    QMUNI2 ZMUNI6_PCT 226.9745    
    QMUNI2 ZMUNI7_PCT 1071.5484   
    QMUNI2 ZMUNI8_PCT 1149.7498   
    QMUNI2 ZMUNI9_PCT 902.5573    
    QMUNI3 OBJROW 1.          
    QMUNI3 ZMUNI1_PCT 4032.7072   
    QMUNI3 ZMUNI2_PCT 2520.9427   
    QMUNI3 ZMUNI3_PCT 31554.7944  
    QMUNI3 ZMUNI4_PCT 5378.5324   
    QMUNI3 ZMUNI5_PCT  -98.0377   
    QMUNI3 ZMUNI6_PCT 70.7626     
    QMUNI3 ZMUNI7_PCT 1595.3063   
    QMUNI3 ZMUNI8_PCT 1352.3102   
    QMUNI3 ZMUNI9_PCT 558.0902    
    QMUNI4 OBJROW 1.          
    QMUNI4 ZMUNI1_PCT 3165.8173   
    QMUNI4 ZMUNI2_PCT 2918.8156   
    QMUNI4 ZMUNI3_PCT 5369.3772   
    QMUNI4 ZMUNI4_PCT 122268.8675 
    QMUNI4 ZMUNI5_PCT  -61.4166   
    QMUNI4 ZMUNI6_PCT 85.4492     
    QMUNI4 ZMUNI7_PCT 1352.6916   
    QMUNI4 ZMUNI8_PCT 1210.785    
    QMUNI4 ZMUNI9_PCT 518.0359    
    QMUNI5 OBJROW 1.          
    QMUNI5 ZMUNI1_PCT 84.6863     
    QMUNI5 ZMUNI2_PCT  -29.5639   
    QMUNI5 ZMUNI3_PCT 39.2914     
    QMUNI5 ZMUNI4_PCT 14.3052     
    QMUNI5 ZMUNI5_PCT 39849.2813  
    QMUNI5 ZMUNI6_PCT 2697.5631   
    QMUNI5 ZMUNI7_PCT 121.6888    
    QMUNI5 ZMUNI8_PCT  -49.9725   
    QMUNI5 ZMUNI9_PCT  -279.6173  
    QMUNI6 OBJROW 1.          
    QMUNI6 ZMUNI1_PCT 217.8192    
    QMUNI6 ZMUNI2_PCT 40.6266     
    QMUNI6 ZMUNI3_PCT 142.0975    
    QMUNI6 ZMUNI4_PCT 100.8988    
    QMUNI6 ZMUNI5_PCT 2889.2517   
    QMUNI6 ZMUNI6_PCT 34552.3834  
    QMUNI6 ZMUNI7_PCT 431.4422    
    QMUNI6 ZMUNI8_PCT 144.9585    
    QMUNI6 ZMUNI9_PCT  -74.7681   
    QMUNI7 OBJROW 1.          
    QMUNI7 ZMUNI1_PCT 1623.7259   
    QMUNI7 ZMUNI2_PCT 1004.0284   
    QMUNI7 ZMUNI3_PCT 1434.3262   
    QMUNI7 ZMUNI4_PCT 1193.2373   
    QMUNI7 ZMUNI5_PCT 551.6052    
    QMUNI7 ZMUNI6_PCT 740.6234    
    QMUNI7 ZMUNI7_PCT 38544.8455  
    QMUNI7 ZMUNI8_PCT 3125.3815   
    QMUNI7 ZMUNI9_PCT 1382.4463   
    QMUNI8 OBJROW 1.          
    QMUNI8 ZMUNI1_PCT 1145.7443   
    QMUNI8 ZMUNI2_PCT 967.9795    
    QMUNI8 ZMUNI3_PCT 1148.4147   
    QMUNI8 ZMUNI4_PCT 947.3801    
    QMUNI8 ZMUNI5_PCT 351.5243    
    QMUNI8 ZMUNI6_PCT 405.693     
    QMUNI8 ZMUNI7_PCT 3020.0958   
    QMUNI8 ZMUNI8_PCT 33283.2337  
    QMUNI8 ZMUNI9_PCT 1622.7722   
    QMUNI9 OBJROW 1.          
    QMUNI9 ZMUNI1_PCT 496.4829    
    QMUNI9 ZMUNI2_PCT 880.4322    
    QMUNI9 ZMUNI3_PCT 600.8149    
    QMUNI9 ZMUNI4_PCT 550.4609    
    QMUNI9 ZMUNI5_PCT  -32.2342   
    QMUNI9 ZMUNI6_PCT 45.9671     
    QMUNI9 ZMUNI7_PCT 852.9663    
    QMUNI9 ZMUNI8_PCT 1425.9339   
    QMUNI9 ZMUNI9_PCT 35059.3567  
RHS
    RHS ZMUNI1_PCT  -2.1516217 
    RHS ZMUNI2_PCT 0.9634802705
    RHS ZMUNI3_PCT  -0.32746476
    RHS ZMUNI4_PCT 11.607866751
    RHS ZMUNI5_PCT 2.8981627304
    RHS ZMUNI6_PCT  -0.3163701 
    RHS ZMUNI7_PCT 1.2077655437
    RHS ZMUNI8_PCT 2.1065104597
    RHS ZMUNI9_PCT 5.0808837009
BOUNDS
 LO BOUND QMUNI1 -0.000634068
 UP BOUND QMUNI1      1.1e+10
 LO BOUND QMUNI2 -0.000401788
 UP BOUND QMUNI2      1.1e+10
 LO BOUND QMUNI3 -0.000497829
 UP BOUND QMUNI3      1.1e+10
 LO BOUND QMUNI4 -0.000101698
 UP BOUND QMUNI4      1.1e+10
 LO BOUND QMUNI5 -0.000235416
 UP BOUND QMUNI5      1.1e+10
 LO BOUND QMUNI6 -0.000431536
 UP BOUND QMUNI6      1.1e+10
 LO BOUND QMUNI7  -6.13445e-5
 UP BOUND QMUNI7      1.1e+10
 LO BOUND QMUNI8 -0.000169935
 UP BOUND QMUNI8      1.1e+10
 LO BOUND QMUNI9  -8.94589e-5
 UP BOUND QMUNI9      1.1e+10
ENDATA
